Version identifier: 12.10.0.0 | 2019-11-26 | 843d4de
CPXPARAM_WorkMem                                 28672
Tried aggregator 2 times.
MIP Presolve eliminated 14 rows and 0 columns.
MIP Presolve added 28 rows and 0 columns.
Aggregator did 40 substitutions.
Reduced MIP has 76 rows, 70 columns, and 314 nonzeros.
Reduced MIP has 70 binaries, 0 generals, 0 SOSs, and 0 indicators.
Presolve time = 0,00 sec. (0,63 ticks)
Found incumbent of value 318,000000 after 0,00 sec. (0,73 ticks)
Probing fixed 2 vars, tightened 0 bounds.
Probing time = 0,00 sec. (0,36 ticks)
Tried aggregator 1 time.
Detecting symmetries...
MIP Presolve eliminated 2 rows and 2 columns.
Reduced MIP has 74 rows, 68 columns, and 302 nonzeros.
Reduced MIP has 68 binaries, 0 generals, 0 SOSs, and 0 indicators.
Presolve time = 0,00 sec. (0,25 ticks)
Probing time = 0,00 sec. (0,33 ticks)
Clique table members: 315.
MIP emphasis: balance optimality and feasibility.
MIP search method: dynamic search.
Parallel mode: deterministic, using up to 16 threads.
Root relaxation solution time = 0,00 sec. (0,16 ticks)

        Nodes                                         Cuts/
   Node  Left     Objective  IInf  Best Integer    Best Bound    ItCnt     Gap

*     0+    0                          318,0000       20,0000            93,71%
*     0+    0                          292,0000       20,0000            93,15%
      0     0      186,0000    66      292,0000      186,0000       29   36,30%
      0     0      242,6478    66      292,0000      Cuts: 84       88   16,90%
      0     0      246,6952    66      292,0000      Cuts: 71      118   15,52%
      0     0      250,5125    66      292,0000      Cuts: 66      149   14,21%
      0     0      251,0947    66      292,0000      Cuts: 34      162   14,01%
      0     0      252,1698    66      292,0000      Cuts: 20      179   13,64%
Detecting symmetries...
      0     0      252,6265    66      292,0000      Cuts: 16      189   13,48%
      0     0      253,1198    66      292,0000      Cuts: 42      199   13,32%
      0     0      253,4198    66      292,0000      Cuts: 26      212   13,21%
      0     0      253,5562    66      292,0000      Cuts: 40      222   13,17%
      0     0      253,7108    66      292,0000      Cuts: 21      235   13,11%
      0     0      253,8220    66      292,0000      Cuts: 14      244   13,07%
      0     0      253,8685    66      292,0000      Cuts: 24      253   13,06%
      0     0      253,9485    66      292,0000      Cuts: 16      263   13,03%
      0     0      254,0323    66      292,0000      Cuts: 11      279   13,00%
      0     0      254,0732    66      292,0000      Cuts: 15      285   12,99%
      0     0      254,1187    66      292,0000       Cuts: 4      290   12,97%
      0     0      254,1300    66      292,0000       Cuts: 8      293   12,97%
      0     0      254,1476    66      292,0000      Cuts: 10      295   12,96%
      0     0        cutoff            292,0000      292,0000      295    0,00%
Elapsed time = 0,04 sec. (27,61 ticks, tree = 0,01 MB, solutions = 2)

Cover cuts applied:  5
Implied bound cuts applied:  14
Mixed integer rounding cuts applied:  9
Zero-half cuts applied:  16
Gomory fractional cuts applied:  2

Root node processing (before b&c):
  Real time             =    0,04 sec. (27,62 ticks)
Parallel b&c, 16 threads:
  Real time             =    0,00 sec. (0,00 ticks)
  Sync time (average)   =    0,00 sec.
  Wait time (average)   =    0,00 sec.
                          ------------
Total (root+branch&cut) =    0,04 sec. (27,62 ticks)
